% Generated FlatZinc statistics:
%%%mzn-stat: paths=0
%%%mzn-stat: flatIntVars=160
%%%mzn-stat: flatIntConstraints=1192
%%%mzn-stat: method="minimize"
%%%mzn-stat: flatTime=0.0554352
%%%mzn-stat-end

yCoor = [8, 20, 22, 8, 19, 1, 23, 11, 36, 9, 11, 1, 13, 15, 10, 4, 26, 5, 16, 8, 5, 15, 19, 11, 10, 6, 11, 10, 6, 23, 6, 8, 5, 1, 32, 30, 23, 21, 1, 15, 34, 9, 8, 17, 17, 11, 23, 1, 29, 15, 4, 11, 16, 18, 1, 9, 5, 11, 19, 5, 11, 26, 5, 6, 6, 32, 10, 15, 24, 27, 9, 21, 15, 11, 21, 40, 31, 11, 11, 1, 1, 11, 4, 6, 6, 11, 13, 24, 23, 6, 1, 9, 17, 28, 16, 1, 13, 25, 28, 23, 10, 19, 25, 35, 26, 19, 28, 23, 19, 11, 5, 38, 30, 23, 15, 14, 3, 19, 27, 6, 1, 28, 15, 5, 1, 19, 31, 25, 19, 28, 1, 2, 11, 15, 1, 37, 11, 5, 11, 13];
S = [16, 13, 31, 16, 39, 4, 11, 19, 18, 21, 30, 36, 17, 28, 12, 11, 20, 20];
D = 40;
objective = 402;
----------
%%%mzn-stat: initTime=0.004471
%%%mzn-stat: solveTime=1199.94
%%%mzn-stat: solutions=93
%%%mzn-stat: variables=160
%%%mzn-stat: propagators=1193
%%%mzn-stat: propagations=1988168829
%%%mzn-stat: nodes=53678865
%%%mzn-stat: failures=26836336
%%%mzn-stat: restarts=0
%%%mzn-stat: peakDepth=161
%%%mzn-stat-end
%%%mzn-stat: nSolutions=1
%%%mzn-stat-end
